p edge 40 234
e 1 2
e 1 4
e 1 21
e 1 22
e 1 26
e 1 27
e 1 30
e 1 35
e 1 39
e 2 4
e 2 8
e 2 13
e 2 16
e 2 19
e 2 20
e 2 21
e 2 27
e 2 28
e 2 31
e 2 32
e 3 4
e 3 6
e 3 12
e 3 14
e 3 20
e 3 24
e 3 28
e 3 29
e 3 31
e 3 34
e 3 38
e 4 5
e 4 11
e 4 14
e 4 19
e 4 29
e 4 32
e 4 36
e 4 37
e 4 40
e 5 10
e 5 12
e 5 17
e 5 20
e 5 24
e 5 27
e 5 28
e 5 30
e 5 36
e 5 37
e 6 7
e 6 10
e 6 17
e 6 27
e 6 28
e 6 33
e 6 39
e 7 8
e 7 14
e 7 22
e 7 26
e 7 27
e 7 28
e 7 29
e 7 33
e 7 34
e 7 38
e 8 12
e 8 16
e 8 20
e 8 21
e 8 23
e 8 28
e 8 34
e 8 37
e 8 38
e 9 10
e 9 11
e 9 16
e 9 18
e 9 20
e 9 29
e 9 32
e 9 39
e 10 13
e 10 16
e 10 22
e 10 23
e 10 24
e 10 26
e 10 36
e 10 40
e 11 13
e 11 20
e 11 23
e 11 26
e 11 28
e 11 30
e 11 34
e 11 39
e 11 40
e 12 15
e 12 17
e 12 21
e 12 23
e 12 25
e 12 26
e 12 27
e 12 30
e 12 31
e 12 33
e 12 37
e 12 38
e 13 17
e 13 18
e 13 19
e 13 20
e 13 22
e 13 26
e 13 30
e 13 35
e 13 37
e 14 17
e 14 18
e 14 21
e 14 22
e 14 23
e 14 26
e 14 29
e 14 32
e 14 33
e 14 34
e 14 35
e 14 38
e 15 17
e 15 20
e 15 27
e 15 33
e 15 35
e 15 38
e 16 17
e 16 18
e 16 21
e 16 23
e 16 27
e 16 30
e 16 33
e 16 38
e 16 39
e 17 22
e 17 33
e 17 39
e 18 19
e 18 26
e 18 30
e 18 33
e 18 34
e 18 37
e 18 38
e 18 40
e 19 20
e 19 24
e 19 26
e 19 28
e 19 30
e 19 31
e 19 32
e 19 34
e 19 35
e 19 37
e 19 39
e 20 22
e 20 23
e 20 25
e 20 33
e 20 35
e 20 38
e 21 22
e 21 26
e 21 27
e 21 33
e 21 34
e 21 39
e 22 23
e 22 24
e 22 27
e 22 29
e 22 31
e 22 34
e 23 27
e 23 29
e 23 31
e 23 34
e 23 35
e 23 37
e 24 32
e 24 37
e 24 39
e 25 29
e 25 34
e 25 38
e 25 40
e 26 27
e 26 30
e 26 33
e 26 37
e 27 34
e 27 40
e 28 29
e 28 31
e 28 36
e 28 37
e 28 38
e 28 39
e 29 39
e 30 32
e 30 37
e 30 39
e 30 40
e 31 32
e 31 33
e 31 37
e 31 39
e 32 33
e 33 38
e 33 40
e 34 38
e 35 37
e 35 38
e 35 39
e 36 38
e 37 39
e 38 39
e 38 40
